12 24 9 10
20 4 5 16 5 1 12 11 20 12 11 12 6 4 14 3 20 14 1 2 15 1 2 20 
3.92 7.32 4.57 0.1 0.42 7.17 3.09 3.75 0.04 2.01 3.12 2.35 5.44 3.89 4.47 4.2 5.67 5.85 5.09 0.35 5.4 3.44 4.67 3.93 
5.5 6.51 5.12 0.37 6.95 6.34 7.3 0.7 4.09 4.5 0.76 7.94 5.54 1.42 5.68 1.64 5.5 6 3.17 6.39 2.23 6.92 3.4 7.79 
4.62 3.79 7.25 3.82 2.44 6.36 7.96 4.25 4.75 1.04 0.83 1.41 0.2 0.13 1.52 6.89 1.64 2.32 1.71 2.09 3.39 1.17 2.37 0.85 
1.05 6.88 6.39 0.23 2.01 0.34 2.58 5.2 4.34 2.98 0.12 6.12 2.03 2.64 1.86 5.75 1.1 7.75 5.72 7.07 4.48 5.51 4.46 7.38 
6.58 1.53 6.87 4.56 5.38 7.27 4.2 6.88 0.9 6.85 4.61 1.12 4.78 1.69 7.69 0.28 0.08 7.59 3.67 1.82 6.43 5.71 0.83 3.71 
5.64 3.25 2.92 1.27 0.57 4.92 4.22 5.3 1.14 4.81 7.39 7.97 0.19 3.76 5.2 6.37 2.67 0.88 0.31 7.88 6.73 5.03 4.83 5.86 
4.5 4.24 1.12 2.35 3.34 1.25 2.46 5.42 2.33 2.88 2.26 7.96 3.86 6.16 5.65 3.84 3.19 1.79 1.23 4.31 6.42 4.76 1.03 4.46 
3.52 2.58 3.83 4.78 6.27 2.74 5.94 1.66 5.16 7.53 0.88 5.28 0.42 1.03 5.24 4.96 1.31 6.34 2.84 3.72 7.61 4.18 4 6.49 
7.69 7.16 4.26 3.78 5.8 2.66 7.17 0.13 6.28 5.96 0.43 5.86 3.64 7.4 1.28 0.03 1.47 2.51 3.48 5.13 7.58 5.03 1.87 4.68 
4 4 4 4 4 4 4 4 4 4 4 4 4 4 4 4 4 4 4 4 4 4 4 4 
7.2 7.92 3.64 0.72 0.03 0.49 1.44 3.25 7.36 0.04 7.74 0.61 4.63 1.49 1.21 2.95 3.82 2.22 6.32 2.05 3.49 2.57 1.94 4.42 
0.16 1.11 7 2.01 0.77 6.94 5.15 3.36 6.18 1.43 1.08 0.49 3.78 7.11 3.59 1.36 7.37 3.63 6.16 1.55 5.73 6.88 7.12 6.87 
1 1 1 1 1 1 1 1 1 1 1 1 1 1 1 1 1 1 1 1 1 1 1 1 
1 1 1 1 1 1 1 1 1 1 1 1 1 1 1 1 1 1 1 1 1 1 1 1 
1 1 1 1 1 1 1 1 1 1 1 1 1 1 1 1 1 1 1 1 1 1 1 1 
1 1 1 1 1 1 1 1 1 1 1 1 1 1 1 1 1 1 1 1 1 1 1 1 
1 1 1 1 1 1 1 1 1 1 1 1 1 1 1 1 1 1 1 1 1 1 1 1 
1 1 1 1 1 1 1 1 1 1 1 1 1 1 1 1 1 1 1 1 1 1 1 1 
1 1 1 1 1 1 1 1 1 1 1 1 1 1 1 1 1 1 1 1 1 1 1 1 
1 1 1 1 1 1 1 1 1 1 1 1 1 1 1 1 1 1 1 1 1 1 1 1 
1 1 1 1 1 1 1 1 1 1 1 1 1 1 1 1 1 1 1 1 1 1 1 1 
1 1 1 1 1 1 1 1 1 1 1 1 1 1 1 1 1 1 1 1 1 1 1 1 
1 1 1 1 1 1 1 1 1 1 1 1 1 1 1 1 1 1 1 1 1 1 1 1 
1 1 1 1 1 1 1 1 1 1 1 1 1 1 1 1 1 1 1 1 1 1 1 1 
0.01 0.01 0.01 0.01 0.01 0.01 0.01 0.01 0.01 0.01 0.01 0.01 0.01 0.01 0.01 0.01 0.01 0.01 0.01 0.01 0.01 0.01 0.01 0.01 
0.02 0.02 0.02 0.02 0.02 0.02 0.02 0.02 0.02 0.02 0.02 0.02 0.02 0.02 0.02 0.02 0.02 0.02 0.02 0.02 0.02 0.02 0.02 0.02 
0.03 0.03 0.03 0.03 0.03 0.03 0.03 0.03 0.03 0.03 0.03 0.03 0.03 0.03 0.03 0.03 0.03 0.03 0.03 0.03 0.03 0.03 0.03 0.03 
0.04 0.04 0.04 0.04 0.04 0.04 0.04 0.04 0.04 0.04 0.04 0.04 0.04 0.04 0.04 0.04 0.04 0.04 0.04 0.04 0.04 0.04 0.04 0.04 
0.05 0.05 0.05 0.05 0.05 0.05 0.05 0.05 0.05 0.05 0.05 0.05 0.05 0.05 0.05 0.05 0.05 0.05 0.05 0.05 0.05 0.05 0.05 0.05 
0.06 0.06 0.06 0.06 0.06 0.06 0.06 0.06 0.06 0.06 0.06 0.06 0.06 0.06 0.06 0.06 0.06 0.06 0.06 0.06 0.06 0.06 0.06 0.06 
0.07 0.07 0.07 0.07 0.07 0.07 0.07 0.07 0.07 0.07 0.07 0.07 0.07 0.07 0.07 0.07 0.07 0.07 0.07 0.07 0.07 0.07 0.07 0.07 
0.08 0.08 0.08 0.08 0.08 0.08 0.08 0.08 0.08 0.08 0.08 0.08 0.08 0.08 0.08 0.08 0.08 0.08 0.08 0.08 0.08 0.08 0.08 0.08 
0.09 0.09 0.09 0.09 0.09 0.09 0.09 0.09 0.09 0.09 0.09 0.09 0.09 0.09 0.09 0.09 0.09 0.09 0.09 0.09 0.09 0.09 0.09 0.09 
0.1 0.1 0.1 0.1 0.1 0.1 0.1 0.1 0.1 0.1 0.1 0.1 0.1 0.1 0.1 0.1 0.1 0.1 0.1 0.1 0.1 0.1 0.1 0.1 
0.5 0.5 0.5 0.5 0.5 0.5 0.5 0.5 0.5 0.5 0.5 0.5 0.5 0.5 0.5 0.5 0.5 0.5 0.5 0.5 0.5 0.5 0.5 0.5 
1 1 1 1 1 1 1 1 1 1 1 1 1 1 1 1 1 1 1 1 1 1 1 1 
